(set-logic QF_LRA)
(declare-fun X0 () Real )
(declare-fun Y0 () Real )
(declare-fun X1 () Real )
(declare-fun Y1 () Real )
(declare-fun X2 () Real )
(declare-fun Y2 () Real )
(declare-fun X3 () Real )
(declare-fun Y3 () Real )
(declare-fun X4 () Real )
(declare-fun Y4 () Real )
(declare-fun X5 () Real )
(declare-fun Y5 () Real )
(declare-fun X6 () Real )
(declare-fun Y6 () Real )
(declare-fun X7 () Real )
(declare-fun Y7 () Real )
(declare-fun X8 () Real )
(declare-fun Y8 () Real )
(declare-fun X9 () Real )
(declare-fun Y9 () Real )
(declare-fun X10 () Real )
(declare-fun Y10 () Real )
(declare-fun X11 () Real )
(declare-fun Y11 () Real )
(declare-fun X12 () Real )
(declare-fun Y12 () Real )
(declare-fun X13 () Real )
(declare-fun Y13 () Real )
(declare-fun X14 () Real )
(declare-fun Y14 () Real )
(declare-fun Z () Real )
(assert ( and  
( or ( <= ( + X0 22 ) X1 )  ( <= ( + X1 2 ) X0 )  ( <= ( + Y0 90 ) Y1 )  ( <= ( + Y1 68 ) Y0 )  )
( or ( <= ( + X0 22 ) X2 )  ( <= ( + X2 16 ) X0 )  ( <= ( + Y0 90 ) Y2 )  ( <= ( + Y2 98 ) Y0 )  )
( or ( <= ( + X0 22 ) X3 )  ( <= ( + X3 78 ) X0 )  ( <= ( + Y0 90 ) Y3 )  ( <= ( + Y3 24 ) Y0 )  )
( or ( <= ( + X0 22 ) X4 )  ( <= ( + X4 29 ) X0 )  ( <= ( + Y0 90 ) Y4 )  ( <= ( + Y4 56 ) Y0 )  )
( or ( <= ( + X0 22 ) X5 )  ( <= ( + X5 18 ) X0 )  ( <= ( + Y0 90 ) Y5 )  ( <= ( + Y5 81 ) Y0 )  )
( or ( <= ( + X0 22 ) X6 )  ( <= ( + X6 70 ) X0 )  ( <= ( + Y0 90 ) Y6 )  ( <= ( + Y6 98 ) Y0 )  )
( or ( <= ( + X0 22 ) X7 )  ( <= ( + X7 76 ) X0 )  ( <= ( + Y0 90 ) Y7 )  ( <= ( + Y7 62 ) Y0 )  )
( or ( <= ( + X0 22 ) X8 )  ( <= ( + X8 27 ) X0 )  ( <= ( + Y0 90 ) Y8 )  ( <= ( + Y8 25 ) Y0 )  )
( or ( <= ( + X0 22 ) X9 )  ( <= ( + X9 3 ) X0 )  ( <= ( + Y0 90 ) Y9 )  ( <= ( + Y9 10 ) Y0 )  )
( or ( <= ( + X0 22 ) X10 )  ( <= ( + X10 82 ) X0 )  ( <= ( + Y0 90 ) Y10 )  ( <= ( + Y10 5 ) Y0 )  )
( or ( <= ( + X0 22 ) X11 )  ( <= ( + X11 52 ) X0 )  ( <= ( + Y0 90 ) Y11 )  ( <= ( + Y11 49 ) Y0 )  )
( or ( <= ( + X0 22 ) X12 )  ( <= ( + X12 52 ) X0 )  ( <= ( + Y0 90 ) Y12 )  ( <= ( + Y12 39 ) Y0 )  )
( or ( <= ( + X0 22 ) X13 )  ( <= ( + X13 27 ) X0 )  ( <= ( + Y0 90 ) Y13 )  ( <= ( + Y13 75 ) Y0 )  )
( or ( <= ( + X0 22 ) X14 )  ( <= ( + X14 65 ) X0 )  ( <= ( + Y0 90 ) Y14 )  ( <= ( + Y14 49 ) Y0 )  )
( or ( <= ( + X1 2 ) X2 )  ( <= ( + X2 16 ) X1 )  ( <= ( + Y1 68 ) Y2 )  ( <= ( + Y2 98 ) Y1 )  )
( or ( <= ( + X1 2 ) X3 )  ( <= ( + X3 78 ) X1 )  ( <= ( + Y1 68 ) Y3 )  ( <= ( + Y3 24 ) Y1 )  )
( or ( <= ( + X1 2 ) X4 )  ( <= ( + X4 29 ) X1 )  ( <= ( + Y1 68 ) Y4 )  ( <= ( + Y4 56 ) Y1 )  )
( or ( <= ( + X1 2 ) X5 )  ( <= ( + X5 18 ) X1 )  ( <= ( + Y1 68 ) Y5 )  ( <= ( + Y5 81 ) Y1 )  )
( or ( <= ( + X1 2 ) X6 )  ( <= ( + X6 70 ) X1 )  ( <= ( + Y1 68 ) Y6 )  ( <= ( + Y6 98 ) Y1 )  )
( or ( <= ( + X1 2 ) X7 )  ( <= ( + X7 76 ) X1 )  ( <= ( + Y1 68 ) Y7 )  ( <= ( + Y7 62 ) Y1 )  )
( or ( <= ( + X1 2 ) X8 )  ( <= ( + X8 27 ) X1 )  ( <= ( + Y1 68 ) Y8 )  ( <= ( + Y8 25 ) Y1 )  )
( or ( <= ( + X1 2 ) X9 )  ( <= ( + X9 3 ) X1 )  ( <= ( + Y1 68 ) Y9 )  ( <= ( + Y9 10 ) Y1 )  )
( or ( <= ( + X1 2 ) X10 )  ( <= ( + X10 82 ) X1 )  ( <= ( + Y1 68 ) Y10 )  ( <= ( + Y10 5 ) Y1 )  )
( or ( <= ( + X1 2 ) X11 )  ( <= ( + X11 52 ) X1 )  ( <= ( + Y1 68 ) Y11 )  ( <= ( + Y11 49 ) Y1 )  )
( or ( <= ( + X1 2 ) X12 )  ( <= ( + X12 52 ) X1 )  ( <= ( + Y1 68 ) Y12 )  ( <= ( + Y12 39 ) Y1 )  )
( or ( <= ( + X1 2 ) X13 )  ( <= ( + X13 27 ) X1 )  ( <= ( + Y1 68 ) Y13 )  ( <= ( + Y13 75 ) Y1 )  )
( or ( <= ( + X1 2 ) X14 )  ( <= ( + X14 65 ) X1 )  ( <= ( + Y1 68 ) Y14 )  ( <= ( + Y14 49 ) Y1 )  )
( or ( <= ( + X2 16 ) X3 )  ( <= ( + X3 78 ) X2 )  ( <= ( + Y2 98 ) Y3 )  ( <= ( + Y3 24 ) Y2 )  )
( or ( <= ( + X2 16 ) X4 )  ( <= ( + X4 29 ) X2 )  ( <= ( + Y2 98 ) Y4 )  ( <= ( + Y4 56 ) Y2 )  )
( or ( <= ( + X2 16 ) X5 )  ( <= ( + X5 18 ) X2 )  ( <= ( + Y2 98 ) Y5 )  ( <= ( + Y5 81 ) Y2 )  )
( or ( <= ( + X2 16 ) X6 )  ( <= ( + X6 70 ) X2 )  ( <= ( + Y2 98 ) Y6 )  ( <= ( + Y6 98 ) Y2 )  )
( or ( <= ( + X2 16 ) X7 )  ( <= ( + X7 76 ) X2 )  ( <= ( + Y2 98 ) Y7 )  ( <= ( + Y7 62 ) Y2 )  )
( or ( <= ( + X2 16 ) X8 )  ( <= ( + X8 27 ) X2 )  ( <= ( + Y2 98 ) Y8 )  ( <= ( + Y8 25 ) Y2 )  )
( or ( <= ( + X2 16 ) X9 )  ( <= ( + X9 3 ) X2 )  ( <= ( + Y2 98 ) Y9 )  ( <= ( + Y9 10 ) Y2 )  )
( or ( <= ( + X2 16 ) X10 )  ( <= ( + X10 82 ) X2 )  ( <= ( + Y2 98 ) Y10 )  ( <= ( + Y10 5 ) Y2 )  )
( or ( <= ( + X2 16 ) X11 )  ( <= ( + X11 52 ) X2 )  ( <= ( + Y2 98 ) Y11 )  ( <= ( + Y11 49 ) Y2 )  )
( or ( <= ( + X2 16 ) X12 )  ( <= ( + X12 52 ) X2 )  ( <= ( + Y2 98 ) Y12 )  ( <= ( + Y12 39 ) Y2 )  )
( or ( <= ( + X2 16 ) X13 )  ( <= ( + X13 27 ) X2 )  ( <= ( + Y2 98 ) Y13 )  ( <= ( + Y13 75 ) Y2 )  )
( or ( <= ( + X2 16 ) X14 )  ( <= ( + X14 65 ) X2 )  ( <= ( + Y2 98 ) Y14 )  ( <= ( + Y14 49 ) Y2 )  )
( or ( <= ( + X3 78 ) X4 )  ( <= ( + X4 29 ) X3 )  ( <= ( + Y3 24 ) Y4 )  ( <= ( + Y4 56 ) Y3 )  )
( or ( <= ( + X3 78 ) X5 )  ( <= ( + X5 18 ) X3 )  ( <= ( + Y3 24 ) Y5 )  ( <= ( + Y5 81 ) Y3 )  )
( or ( <= ( + X3 78 ) X6 )  ( <= ( + X6 70 ) X3 )  ( <= ( + Y3 24 ) Y6 )  ( <= ( + Y6 98 ) Y3 )  )
( or ( <= ( + X3 78 ) X7 )  ( <= ( + X7 76 ) X3 )  ( <= ( + Y3 24 ) Y7 )  ( <= ( + Y7 62 ) Y3 )  )
( or ( <= ( + X3 78 ) X8 )  ( <= ( + X8 27 ) X3 )  ( <= ( + Y3 24 ) Y8 )  ( <= ( + Y8 25 ) Y3 )  )
( or ( <= ( + X3 78 ) X9 )  ( <= ( + X9 3 ) X3 )  ( <= ( + Y3 24 ) Y9 )  ( <= ( + Y9 10 ) Y3 )  )
( or ( <= ( + X3 78 ) X10 )  ( <= ( + X10 82 ) X3 )  ( <= ( + Y3 24 ) Y10 )  ( <= ( + Y10 5 ) Y3 )  )
( or ( <= ( + X3 78 ) X11 )  ( <= ( + X11 52 ) X3 )  ( <= ( + Y3 24 ) Y11 )  ( <= ( + Y11 49 ) Y3 )  )
( or ( <= ( + X3 78 ) X12 )  ( <= ( + X12 52 ) X3 )  ( <= ( + Y3 24 ) Y12 )  ( <= ( + Y12 39 ) Y3 )  )
( or ( <= ( + X3 78 ) X13 )  ( <= ( + X13 27 ) X3 )  ( <= ( + Y3 24 ) Y13 )  ( <= ( + Y13 75 ) Y3 )  )
( or ( <= ( + X3 78 ) X14 )  ( <= ( + X14 65 ) X3 )  ( <= ( + Y3 24 ) Y14 )  ( <= ( + Y14 49 ) Y3 )  )
( or ( <= ( + X4 29 ) X5 )  ( <= ( + X5 18 ) X4 )  ( <= ( + Y4 56 ) Y5 )  ( <= ( + Y5 81 ) Y4 )  )
( or ( <= ( + X4 29 ) X6 )  ( <= ( + X6 70 ) X4 )  ( <= ( + Y4 56 ) Y6 )  ( <= ( + Y6 98 ) Y4 )  )
( or ( <= ( + X4 29 ) X7 )  ( <= ( + X7 76 ) X4 )  ( <= ( + Y4 56 ) Y7 )  ( <= ( + Y7 62 ) Y4 )  )
( or ( <= ( + X4 29 ) X8 )  ( <= ( + X8 27 ) X4 )  ( <= ( + Y4 56 ) Y8 )  ( <= ( + Y8 25 ) Y4 )  )
( or ( <= ( + X4 29 ) X9 )  ( <= ( + X9 3 ) X4 )  ( <= ( + Y4 56 ) Y9 )  ( <= ( + Y9 10 ) Y4 )  )
( or ( <= ( + X4 29 ) X10 )  ( <= ( + X10 82 ) X4 )  ( <= ( + Y4 56 ) Y10 )  ( <= ( + Y10 5 ) Y4 )  )
( or ( <= ( + X4 29 ) X11 )  ( <= ( + X11 52 ) X4 )  ( <= ( + Y4 56 ) Y11 )  ( <= ( + Y11 49 ) Y4 )  )
( or ( <= ( + X4 29 ) X12 )  ( <= ( + X12 52 ) X4 )  ( <= ( + Y4 56 ) Y12 )  ( <= ( + Y12 39 ) Y4 )  )
( or ( <= ( + X4 29 ) X13 )  ( <= ( + X13 27 ) X4 )  ( <= ( + Y4 56 ) Y13 )  ( <= ( + Y13 75 ) Y4 )  )
( or ( <= ( + X4 29 ) X14 )  ( <= ( + X14 65 ) X4 )  ( <= ( + Y4 56 ) Y14 )  ( <= ( + Y14 49 ) Y4 )  )
( or ( <= ( + X5 18 ) X6 )  ( <= ( + X6 70 ) X5 )  ( <= ( + Y5 81 ) Y6 )  ( <= ( + Y6 98 ) Y5 )  )
( or ( <= ( + X5 18 ) X7 )  ( <= ( + X7 76 ) X5 )  ( <= ( + Y5 81 ) Y7 )  ( <= ( + Y7 62 ) Y5 )  )
( or ( <= ( + X5 18 ) X8 )  ( <= ( + X8 27 ) X5 )  ( <= ( + Y5 81 ) Y8 )  ( <= ( + Y8 25 ) Y5 )  )
( or ( <= ( + X5 18 ) X9 )  ( <= ( + X9 3 ) X5 )  ( <= ( + Y5 81 ) Y9 )  ( <= ( + Y9 10 ) Y5 )  )
( or ( <= ( + X5 18 ) X10 )  ( <= ( + X10 82 ) X5 )  ( <= ( + Y5 81 ) Y10 )  ( <= ( + Y10 5 ) Y5 )  )
( or ( <= ( + X5 18 ) X11 )  ( <= ( + X11 52 ) X5 )  ( <= ( + Y5 81 ) Y11 )  ( <= ( + Y11 49 ) Y5 )  )
( or ( <= ( + X5 18 ) X12 )  ( <= ( + X12 52 ) X5 )  ( <= ( + Y5 81 ) Y12 )  ( <= ( + Y12 39 ) Y5 )  )
( or ( <= ( + X5 18 ) X13 )  ( <= ( + X13 27 ) X5 )  ( <= ( + Y5 81 ) Y13 )  ( <= ( + Y13 75 ) Y5 )  )
( or ( <= ( + X5 18 ) X14 )  ( <= ( + X14 65 ) X5 )  ( <= ( + Y5 81 ) Y14 )  ( <= ( + Y14 49 ) Y5 )  )
( or ( <= ( + X6 70 ) X7 )  ( <= ( + X7 76 ) X6 )  ( <= ( + Y6 98 ) Y7 )  ( <= ( + Y7 62 ) Y6 )  )
( or ( <= ( + X6 70 ) X8 )  ( <= ( + X8 27 ) X6 )  ( <= ( + Y6 98 ) Y8 )  ( <= ( + Y8 25 ) Y6 )  )
( or ( <= ( + X6 70 ) X9 )  ( <= ( + X9 3 ) X6 )  ( <= ( + Y6 98 ) Y9 )  ( <= ( + Y9 10 ) Y6 )  )
( or ( <= ( + X6 70 ) X10 )  ( <= ( + X10 82 ) X6 )  ( <= ( + Y6 98 ) Y10 )  ( <= ( + Y10 5 ) Y6 )  )
( or ( <= ( + X6 70 ) X11 )  ( <= ( + X11 52 ) X6 )  ( <= ( + Y6 98 ) Y11 )  ( <= ( + Y11 49 ) Y6 )  )
( or ( <= ( + X6 70 ) X12 )  ( <= ( + X12 52 ) X6 )  ( <= ( + Y6 98 ) Y12 )  ( <= ( + Y12 39 ) Y6 )  )
( or ( <= ( + X6 70 ) X13 )  ( <= ( + X13 27 ) X6 )  ( <= ( + Y6 98 ) Y13 )  ( <= ( + Y13 75 ) Y6 )  )
( or ( <= ( + X6 70 ) X14 )  ( <= ( + X14 65 ) X6 )  ( <= ( + Y6 98 ) Y14 )  ( <= ( + Y14 49 ) Y6 )  )
( or ( <= ( + X7 76 ) X8 )  ( <= ( + X8 27 ) X7 )  ( <= ( + Y7 62 ) Y8 )  ( <= ( + Y8 25 ) Y7 )  )
( or ( <= ( + X7 76 ) X9 )  ( <= ( + X9 3 ) X7 )  ( <= ( + Y7 62 ) Y9 )  ( <= ( + Y9 10 ) Y7 )  )
( or ( <= ( + X7 76 ) X10 )  ( <= ( + X10 82 ) X7 )  ( <= ( + Y7 62 ) Y10 )  ( <= ( + Y10 5 ) Y7 )  )
( or ( <= ( + X7 76 ) X11 )  ( <= ( + X11 52 ) X7 )  ( <= ( + Y7 62 ) Y11 )  ( <= ( + Y11 49 ) Y7 )  )
( or ( <= ( + X7 76 ) X12 )  ( <= ( + X12 52 ) X7 )  ( <= ( + Y7 62 ) Y12 )  ( <= ( + Y12 39 ) Y7 )  )
( or ( <= ( + X7 76 ) X13 )  ( <= ( + X13 27 ) X7 )  ( <= ( + Y7 62 ) Y13 )  ( <= ( + Y13 75 ) Y7 )  )
( or ( <= ( + X7 76 ) X14 )  ( <= ( + X14 65 ) X7 )  ( <= ( + Y7 62 ) Y14 )  ( <= ( + Y14 49 ) Y7 )  )
( or ( <= ( + X8 27 ) X9 )  ( <= ( + X9 3 ) X8 )  ( <= ( + Y8 25 ) Y9 )  ( <= ( + Y9 10 ) Y8 )  )
( or ( <= ( + X8 27 ) X10 )  ( <= ( + X10 82 ) X8 )  ( <= ( + Y8 25 ) Y10 )  ( <= ( + Y10 5 ) Y8 )  )
( or ( <= ( + X8 27 ) X11 )  ( <= ( + X11 52 ) X8 )  ( <= ( + Y8 25 ) Y11 )  ( <= ( + Y11 49 ) Y8 )  )
( or ( <= ( + X8 27 ) X12 )  ( <= ( + X12 52 ) X8 )  ( <= ( + Y8 25 ) Y12 )  ( <= ( + Y12 39 ) Y8 )  )
( or ( <= ( + X8 27 ) X13 )  ( <= ( + X13 27 ) X8 )  ( <= ( + Y8 25 ) Y13 )  ( <= ( + Y13 75 ) Y8 )  )
( or ( <= ( + X8 27 ) X14 )  ( <= ( + X14 65 ) X8 )  ( <= ( + Y8 25 ) Y14 )  ( <= ( + Y14 49 ) Y8 )  )
( or ( <= ( + X9 3 ) X10 )  ( <= ( + X10 82 ) X9 )  ( <= ( + Y9 10 ) Y10 )  ( <= ( + Y10 5 ) Y9 )  )
( or ( <= ( + X9 3 ) X11 )  ( <= ( + X11 52 ) X9 )  ( <= ( + Y9 10 ) Y11 )  ( <= ( + Y11 49 ) Y9 )  )
( or ( <= ( + X9 3 ) X12 )  ( <= ( + X12 52 ) X9 )  ( <= ( + Y9 10 ) Y12 )  ( <= ( + Y12 39 ) Y9 )  )
( or ( <= ( + X9 3 ) X13 )  ( <= ( + X13 27 ) X9 )  ( <= ( + Y9 10 ) Y13 )  ( <= ( + Y13 75 ) Y9 )  )
( or ( <= ( + X9 3 ) X14 )  ( <= ( + X14 65 ) X9 )  ( <= ( + Y9 10 ) Y14 )  ( <= ( + Y14 49 ) Y9 )  )
( or ( <= ( + X10 82 ) X11 )  ( <= ( + X11 52 ) X10 )  ( <= ( + Y10 5 ) Y11 )  ( <= ( + Y11 49 ) Y10 )  )
( or ( <= ( + X10 82 ) X12 )  ( <= ( + X12 52 ) X10 )  ( <= ( + Y10 5 ) Y12 )  ( <= ( + Y12 39 ) Y10 )  )
( or ( <= ( + X10 82 ) X13 )  ( <= ( + X13 27 ) X10 )  ( <= ( + Y10 5 ) Y13 )  ( <= ( + Y13 75 ) Y10 )  )
( or ( <= ( + X10 82 ) X14 )  ( <= ( + X14 65 ) X10 )  ( <= ( + Y10 5 ) Y14 )  ( <= ( + Y14 49 ) Y10 )  )
( or ( <= ( + X11 52 ) X12 )  ( <= ( + X12 52 ) X11 )  ( <= ( + Y11 49 ) Y12 )  ( <= ( + Y12 39 ) Y11 )  )
( or ( <= ( + X11 52 ) X13 )  ( <= ( + X13 27 ) X11 )  ( <= ( + Y11 49 ) Y13 )  ( <= ( + Y13 75 ) Y11 )  )
( or ( <= ( + X11 52 ) X14 )  ( <= ( + X14 65 ) X11 )  ( <= ( + Y11 49 ) Y14 )  ( <= ( + Y14 49 ) Y11 )  )
( or ( <= ( + X12 52 ) X13 )  ( <= ( + X13 27 ) X12 )  ( <= ( + Y12 39 ) Y13 )  ( <= ( + Y13 75 ) Y12 )  )
( or ( <= ( + X12 52 ) X14 )  ( <= ( + X14 65 ) X12 )  ( <= ( + Y12 39 ) Y14 )  ( <= ( + Y14 49 ) Y12 )  )
( or ( <= ( + X13 27 ) X14 )  ( <= ( + X14 65 ) X13 )  ( <= ( + Y13 75 ) Y14 )  ( <= ( + Y14 49 ) Y13 )  )
( >= X0 0)
( <= ( + X0 22) Z)
( >= Y0 0)
( <= ( + Y0 90 ) 100)
( >= X1 0)
( <= ( + X1 2) Z)
( >= Y1 0)
( <= ( + Y1 68 ) 100)
( >= X2 0)
( <= ( + X2 16) Z)
( >= Y2 0)
( <= ( + Y2 98 ) 100)
( >= X3 0)
( <= ( + X3 78) Z)
( >= Y3 0)
( <= ( + Y3 24 ) 100)
( >= X4 0)
( <= ( + X4 29) Z)
( >= Y4 0)
( <= ( + Y4 56 ) 100)
( >= X5 0)
( <= ( + X5 18) Z)
( >= Y5 0)
( <= ( + Y5 81 ) 100)
( >= X6 0)
( <= ( + X6 70) Z)
( >= Y6 0)
( <= ( + Y6 98 ) 100)
( >= X7 0)
( <= ( + X7 76) Z)
( >= Y7 0)
( <= ( + Y7 62 ) 100)
( >= X8 0)
( <= ( + X8 27) Z)
( >= Y8 0)
( <= ( + Y8 25 ) 100)
( >= X9 0)
( <= ( + X9 3) Z)
( >= Y9 0)
( <= ( + Y9 10 ) 100)
( >= X10 0)
( <= ( + X10 82) Z)
( >= Y10 0)
( <= ( + Y10 5 ) 100)
( >= X11 0)
( <= ( + X11 52) Z)
( >= Y11 0)
( <= ( + Y11 49 ) 100)
( >= X12 0)
( <= ( + X12 52) Z)
( >= Y12 0)
( <= ( + Y12 39 ) 100)
( >= X13 0)
( <= ( + X13 27) Z)
( >= Y13 0)
( <= ( + Y13 75 ) 100)
( >= X14 0)
( <= ( + X14 65) Z)
( >= Y14 0)
( <= ( + Y14 49 ) 100)
) )
(minimize Z)
(check-sat)
